4 10 50 1 2
0 200
 1 40.00 50.00 0.00 0.00 0.00 0 0 0 240
 2 25.00 85.00 10.00 20.00 20.00 1 1 1 49 191
 3 22.00 75.00 10.00 30.00 20.00 1 1 1 30 168
 4 22.00 85.00 10.00 10.00 30.00 1 1 1 95 152
 5 20.00 80.00 10.00 40.00 10.00 1 1 1 69 193
 6 20.00 85.00 10.00 20.00 20.00 1 1 1 40 189
 7 18.00 75.00 10.00 20.00 30.00 1 1 1 60 159
 8 15.00 75.00 10.00 20.00 30.00 1 1 1 54 133
 9 15.00 80.00 10.00 10.00 30.00 1 1 1 67 144
 10 10.00 35.00 10.00 20.00 10.00 1 1 1 57 154
 11 10.00 40.00 10.00 30.00 20.00 1 1 1 106 161
 12 8.00 40.00 10.00 40.00 40.00 1 1 1 33 152
 13 8.00 45.00 10.00 20.00 10.00 1 1 1 32 148
 14 5.00 35.00 10.00 10.00 40.00 1 1 1 53 191
 15 5.00 45.00 10.00 10.00 20.00 1 1 1 35 194
 16 2.00 40.00 10.00 20.00 30.00 1 1 1 39 163
 17 0.00 40.00 10.00 20.00 40.00 1 1 1 41 141
 18 0.00 45.00 10.00 20.00 10.00 1 1 1 51 189
 19 44.00 5.00 10.00 20.00 20.00 1 1 1 73 130
 20 42.00 10.00 10.00 40.00 10.00 1 1 1 40 148
 21 42.00 15.00 10.00 10.00 20.00 1 1 1 94 179
 22 40.00 5.00 10.00 10.00 20.00 1 1 1 45 161
 23 40.00 15.00 10.00 40.00 20.00 1 1 1 64 149
 24 38.00 5.00 10.00 30.00 40.00 1 1 1 45 164
 25 38.00 15.00 10.00 10.00 30.00 1 1 1 51 194
 26 35.00 5.00 10.00 20.00 10.00 1 1 1 45 183
 27 95.00 30.00 10.00 30.00 10.00 1 1 1 90 169
 28 95.00 35.00 10.00 20.00 20.00 1 1 1 57 172
 29 92.00 30.00 10.00 10.00 10.00 1 1 1 55 174
 30 90.00 35.00 10.00 10.00 20.00 1 1 1 52 174
 31 88.00 30.00 10.00 10.00 10.00 1 1 1 52 147
 32 88.00 35.00 10.00 20.00 10.00 1 1 1 50 172
 33 87.00 30.00 10.00 10.00 10.00 1 1 1 61 178
 34 85.00 25.00 10.00 10.00 10.00 1 1 1 51 178
 35 85.00 35.00 10.00 30.00 20.00 1 1 1 83 168
 36 67.00 85.00 10.00 20.00 20.00 1 1 1 57 185
 37 65.00 85.00 10.00 40.00 10.00 1 1 1 43 186
 38 65.00 82.00 10.00 10.00 10.00 1 1 1 95 182
 39 62.00 80.00 10.00 30.00 30.00 1 1 1 38 141
 40 60.00 80.00 10.00 10.00 10.00 1 1 1 36 193
 41 60.00 85.00 10.00 30.00 40.00 1 1 1 61 138
 42 58.00 75.00 10.00 20.00 20.00 1 1 1 49 164
 43 55.00 80.00 10.00 10.00 10.00 1 1 1 33 180
 44 55.00 85.00 10.00 20.00 10.00 1 1 1 100 185
 45 55.00 82.00 10.00 10.00 10.00 1 1 1 35 142
 46 20.00 82.00 10.00 10.00 20.00 1 1 1 37 192
 47 18.00 80.00 10.00 10.00 30.00 1 1 1 71 184
 48 2.00 45.00 10.00 10.00 20.00 1 1 1 38 191
 49 42.00 5.00 10.00 10.00 10.00 1 1 1 50 184
 50 42.00 12.00 10.00 10.00 10.00 1 1 1 99 138
 51 72.00 35.00 10.00 30.00 10.00 1 1 1 83 178
